(set-logic BV) (define-fun origCir ((n307 Bool) (n261 Bool) (n253 Bool) (n170 Bool)) Bool (and n307 (xor n261 (and n253 n170)))) (synth-fun skel ((n307 Bool) (n261 Bool) (n253 Bool) (n170 Bool)) Bool) (declare-var n307 Bool) (declare-var n261 Bool) (declare-var n253 Bool) (declare-var n170 Bool) (constraint (= (origCir n307 n261 n253 n170) (skel n307 n261 n253 n170))) (check-synth)
